c at-most-two of 7 pidgeon in 3 holes
c p1@1 1
c p2@1 2
c p3@1 3
c p4@1 4
c p5@1 5
c p6@1 6
c p7@1 7
c p1@2 8
c p2@2 9
c p3@2 10
c p4@2 11
c p5@2 12
c p6@2 13
c p7@2 14
c p1@3 15
c p2@3 16
c p3@3 17
c p4@3 18
c p5@3 19
c p6@3 20
c p7@3 21
p cnf 21 112
-1 -2 -3 0
-1 -2 -4 0
-1 -2 -5 0
-1 -2 -6 0
-1 -2 -7 0
-1 -3 -4 0
-1 -3 -5 0
-1 -3 -6 0
-1 -3 -7 0
-1 -4 -5 0
-1 -4 -6 0
-1 -4 -7 0
-1 -5 -6 0
-1 -5 -7 0
-1 -6 -7 0
-2 -3 -4 0
-2 -3 -5 0
-2 -3 -6 0
-2 -3 -7 0
-2 -4 -5 0
-2 -4 -6 0
-2 -4 -7 0
-2 -5 -6 0
-2 -5 -7 0
-2 -6 -7 0
-3 -4 -5 0
-3 -4 -6 0
-3 -4 -7 0
-3 -5 -6 0
-3 -5 -7 0
-3 -6 -7 0
-4 -5 -6 0
-4 -5 -7 0
-4 -6 -7 0
-5 -6 -7 0
-8 -9 -10 0
-8 -9 -11 0
-8 -9 -12 0
-8 -9 -13 0
-8 -9 -14 0
-8 -10 -11 0
-8 -10 -12 0
-8 -10 -13 0
-8 -10 -14 0
-8 -11 -12 0
-8 -11 -13 0
-8 -11 -14 0
-8 -12 -13 0
-8 -12 -14 0
-8 -13 -14 0
-9 -10 -11 0
-9 -10 -12 0
-9 -10 -13 0
-9 -10 -14 0
-9 -11 -12 0
-9 -11 -13 0
-9 -11 -14 0
-9 -12 -13 0
-9 -12 -14 0
-9 -13 -14 0
-10 -11 -12 0
-10 -11 -13 0
-10 -11 -14 0
-10 -12 -13 0
-10 -12 -14 0
-10 -13 -14 0
-11 -12 -13 0
-11 -12 -14 0
-11 -13 -14 0
-12 -13 -14 0
-15 -16 -17 0
-15 -16 -18 0
-15 -16 -19 0
-15 -16 -20 0
-15 -16 -21 0
-15 -17 -18 0
-15 -17 -19 0
-15 -17 -20 0
-15 -17 -21 0
-15 -18 -19 0
-15 -18 -20 0
-15 -18 -21 0
-15 -19 -20 0
-15 -19 -21 0
-15 -20 -21 0
-16 -17 -18 0
-16 -17 -19 0
-16 -17 -20 0
-16 -17 -21 0
-16 -18 -19 0
-16 -18 -20 0
-16 -18 -21 0
-16 -19 -20 0
-16 -19 -21 0
-16 -20 -21 0
-17 -18 -19 0
-17 -18 -20 0
-17 -18 -21 0
-17 -19 -20 0
-17 -19 -21 0
-17 -20 -21 0
-18 -19 -20 0
-18 -19 -21 0
-18 -20 -21 0
-19 -20 -21 0
1 8 15 0
2 9 16 0
3 10 17 0
4 11 18 0
5 12 19 0
6 13 20 0
7 14 21 0
